\Problem name: compact

Minimize
OBJROW: C
Subject To
ord(0,1):  - x(0,0) + x(0,2) >= 3
ord(0,2):  x(0,1) - x(0,2) >= 10
ord(1,1):  x(1,0) - x(1,2) >= 5
ord(1,2):  - x(1,0) + x(1,1) >= 1
ord(2,1):  - x(2,1) + x(2,2) >= 8
ord(2,2):  x(2,0) - x(2,2) >= 3
triangle2(0,1,0):  y(0,1,0) + y(1,0,0) = 1
triangle2(0,1,1):  y(0,1,1) + y(1,0,1) = 1
triangle2(0,1,2):  y(0,1,2) + y(1,0,2) = 1
triangle2(0,2,0):  y(0,2,0) + y(2,0,0) = 1
triangle2(0,2,1):  y(0,2,1) + y(2,0,1) = 1
triangle2(0,2,2):  y(0,2,2) + y(2,0,2) = 1
triangle2(1,2,0):  y(1,2,0) + y(2,1,0) = 1
triangle2(1,2,1):  y(1,2,1) + y(2,1,1) = 1
triangle2(1,2,2):  y(1,2,2) + y(2,1,2) = 1
MCLinV(0,1,0):  x(0,0) - v(0,1,0) - x(1,0) = 1
MCLinV(1,0,0):  - x(0,0) - v(1,0,0) + x(1,0) = 3
MCLin1(0,1,0):  u(0,1,0) >= -0
MCLin2(0,1,0):  -41 y(1,0,0) - u(0,1,0) <= -0
MCLin3(0,1,0):  25 y(1,0,0) + v(0,1,0) - u(0,1,0) <= 25
MCLin4(0,1,0):  25 y(1,0,0) - u(0,1,0) >= -0
MCLin5(0,1,0):  -41 y(1,0,0) + v(0,1,0) - u(0,1,0) >= -41
MCLin6(1,0,0):  u(1,0,0) >= -0
MCLin7(1,0,0):  -29 y(0,1,0) - u(1,0,0) <= -0
MCLin8(1,0,0):  37 y(0,1,0) + v(1,0,0) - u(1,0,0) <= 37
MCLin9(1,0,0):  37 y(0,1,0) - u(1,0,0) >= -0
MCLin10(1,0,0):  -29 y(0,1,0) + v(1,0,0) - u(1,0,0) >= -29
MCLinV(0,1,1):  x(0,1) - v(0,1,1) - x(1,1) = 4
MCLinV(1,0,1):  - x(0,1) - v(1,0,1) + x(1,1) = 1
MCLin1(0,1,1):  u(0,1,1) >= -0
MCLin2(0,1,1):  -32 y(1,0,1) - u(0,1,1) <= -0
MCLin3(0,1,1):  34 y(1,0,1) + v(0,1,1) - u(0,1,1) <= 34
MCLin4(0,1,1):  34 y(1,0,1) - u(0,1,1) >= -0
MCLin5(0,1,1):  -32 y(1,0,1) + v(0,1,1) - u(0,1,1) >= -32
MCLin6(1,0,1):  u(1,0,1) >= -0
MCLin7(1,0,1):  -39 y(0,1,1) - u(1,0,1) <= -0
MCLin8(1,0,1):  27 y(0,1,1) + v(1,0,1) - u(1,0,1) <= 27
MCLin9(1,0,1):  27 y(0,1,1) - u(1,0,1) >= -0
MCLin10(1,0,1):  -39 y(0,1,1) + v(1,0,1) - u(1,0,1) >= -39
MCLinV(0,1,2):  x(0,2) - v(0,1,2) - x(1,2) = 5
MCLinV(1,0,2):  - x(0,2) - v(1,0,2) + x(1,2) = 10
MCLin1(0,1,2):  u(0,1,2) >= -0
MCLin2(0,1,2):  -37 y(1,0,2) - u(0,1,2) <= -0
MCLin3(0,1,2):  29 y(1,0,2) + v(0,1,2) - u(0,1,2) <= 29
MCLin4(0,1,2):  29 y(1,0,2) - u(0,1,2) >= -0
MCLin5(0,1,2):  -37 y(1,0,2) + v(0,1,2) - u(0,1,2) >= -37
MCLin6(1,0,2):  u(1,0,2) >= -0
MCLin7(1,0,2):  -44 y(0,1,2) - u(1,0,2) <= -0
MCLin8(1,0,2):  22 y(0,1,2) + v(1,0,2) - u(1,0,2) <= 22
MCLin9(1,0,2):  22 y(0,1,2) - u(1,0,2) >= -0
MCLin10(1,0,2):  -44 y(0,1,2) + v(1,0,2) - u(1,0,2) >= -44
MCLinV(0,2,0):  x(0,0) - v(0,2,0) - x(2,0) = 10
MCLinV(2,0,0):  - x(0,0) - v(2,0,0) + x(2,0) = 3
MCLin1(0,2,0):  u(0,2,0) >= -0
MCLin2(0,2,0):  -45 y(2,0,0) - u(0,2,0) <= -0
MCLin3(0,2,0):  10 y(2,0,0) + v(0,2,0) - u(0,2,0) <= 10
MCLin4(0,2,0):  10 y(2,0,0) - u(0,2,0) >= -0
MCLin5(0,2,0):  -45 y(2,0,0) + v(0,2,0) - u(0,2,0) >= -45
MCLin6(2,0,0):  u(2,0,0) >= -0
MCLin7(2,0,0):  -23 y(0,2,0) - u(2,0,0) <= -0
MCLin8(2,0,0):  32 y(0,2,0) + v(2,0,0) - u(2,0,0) <= 32
MCLin9(2,0,0):  32 y(0,2,0) - u(2,0,0) >= -0
MCLin10(2,0,0):  -23 y(0,2,0) + v(2,0,0) - u(2,0,0) >= -23
MCLinV(0,2,1):  x(0,1) - v(0,2,1) - x(2,1) = 8
MCLinV(2,0,1):  - x(0,1) - v(2,0,1) + x(2,1) = 1
MCLin1(0,2,1):  u(0,2,1) >= -0
MCLin2(0,2,1):  -19 y(2,0,1) - u(0,2,1) <= -0
MCLin3(0,2,1):  36 y(2,0,1) + v(0,2,1) - u(0,2,1) <= 36
MCLin4(0,2,1):  36 y(2,0,1) - u(0,2,1) >= -0
MCLin5(0,2,1):  -19 y(2,0,1) + v(0,2,1) - u(0,2,1) >= -19
MCLin6(2,0,1):  u(2,0,1) >= -0
MCLin7(2,0,1):  -45 y(0,2,1) - u(2,0,1) <= -0
MCLin8(2,0,1):  10 y(0,2,1) + v(2,0,1) - u(2,0,1) <= 10
MCLin9(2,0,1):  10 y(0,2,1) - u(2,0,1) >= -0
MCLin10(2,0,1):  -45 y(0,2,1) + v(2,0,1) - u(2,0,1) >= -45
MCLinV(0,2,2):  x(0,2) - v(0,2,2) - x(2,2) = 3
MCLinV(2,0,2):  - x(0,2) - v(2,0,2) + x(2,2) = 10
MCLin1(0,2,2):  u(0,2,2) >= -0
MCLin2(0,2,2):  -32 y(2,0,2) - u(0,2,2) <= -0
MCLin3(0,2,2):  23 y(2,0,2) + v(0,2,2) - u(0,2,2) <= 23
MCLin4(0,2,2):  23 y(2,0,2) - u(0,2,2) >= -0
MCLin5(0,2,2):  -32 y(2,0,2) + v(0,2,2) - u(0,2,2) >= -32
MCLin6(2,0,2):  u(2,0,2) >= -0
MCLin7(2,0,2):  -36 y(0,2,2) - u(2,0,2) <= -0
MCLin8(2,0,2):  19 y(0,2,2) + v(2,0,2) - u(2,0,2) <= 19
MCLin9(2,0,2):  19 y(0,2,2) - u(2,0,2) >= -0
MCLin10(2,0,2):  -36 y(0,2,2) + v(2,0,2) - u(2,0,2) >= -36
MCLinV(1,2,0):  x(1,0) - v(1,2,0) - x(2,0) = 10
MCLinV(2,1,0):  - x(1,0) - v(2,1,0) + x(2,0) = 1
MCLin1(1,2,0):  u(1,2,0) >= -0
MCLin2(1,2,0):  -40 y(2,1,0) - u(1,2,0) <= -0
MCLin3(1,2,0):  19 y(2,1,0) + v(1,2,0) - u(1,2,0) <= 19
MCLin4(1,2,0):  19 y(2,1,0) - u(1,2,0) >= -0
MCLin5(1,2,0):  -40 y(2,1,0) + v(1,2,0) - u(1,2,0) >= -40
MCLin6(2,1,0):  u(2,1,0) >= -0
MCLin7(2,1,0):  -30 y(1,2,0) - u(2,1,0) <= -0
MCLin8(2,1,0):  29 y(1,2,0) + v(2,1,0) - u(2,1,0) <= 29
MCLin9(2,1,0):  29 y(1,2,0) - u(2,1,0) >= -0
MCLin10(2,1,0):  -30 y(1,2,0) + v(2,1,0) - u(2,1,0) >= -30
MCLinV(1,2,1):  x(1,1) - v(1,2,1) - x(2,1) = 8
MCLinV(2,1,1):  - x(1,1) - v(2,1,1) + x(2,1) = 4
MCLin1(1,2,1):  u(1,2,1) >= -0
MCLin2(1,2,1):  -26 y(2,1,1) - u(1,2,1) <= -0
MCLin3(1,2,1):  33 y(2,1,1) + v(1,2,1) - u(1,2,1) <= 33
MCLin4(1,2,1):  33 y(2,1,1) - u(1,2,1) >= -0
MCLin5(1,2,1):  -26 y(2,1,1) + v(1,2,1) - u(1,2,1) >= -26
MCLin6(2,1,1):  u(2,1,1) >= -0
MCLin7(2,1,1):  -45 y(1,2,1) - u(2,1,1) <= -0
MCLin8(2,1,1):  14 y(1,2,1) + v(2,1,1) - u(2,1,1) <= 14
MCLin9(2,1,1):  14 y(1,2,1) - u(2,1,1) >= -0
MCLin10(2,1,1):  -45 y(1,2,1) + v(2,1,1) - u(2,1,1) >= -45
MCLinV(1,2,2):  x(1,2) - v(1,2,2) - x(2,2) = 3
MCLinV(2,1,2):  - x(1,2) - v(2,1,2) + x(2,2) = 5
MCLin1(1,2,2):  u(1,2,2) >= -0
MCLin2(1,2,2):  -35 y(2,1,2) - u(1,2,2) <= -0
MCLin3(1,2,2):  24 y(2,1,2) + v(1,2,2) - u(1,2,2) <= 24
MCLin4(1,2,2):  24 y(2,1,2) - u(1,2,2) >= -0
MCLin5(1,2,2):  -35 y(2,1,2) + v(1,2,2) - u(1,2,2) >= -35
MCLin6(2,1,2):  u(2,1,2) >= -0
MCLin7(2,1,2):  -32 y(1,2,2) - u(2,1,2) <= -0
MCLin8(2,1,2):  27 y(1,2,2) + v(2,1,2) - u(2,1,2) <= 27
MCLin9(2,1,2):  27 y(1,2,2) - u(2,1,2) >= -0
MCLin10(2,1,2):  -32 y(1,2,2) + v(2,1,2) - u(2,1,2) >= -32
makespan(0):  C - x(0,1) >= 1
makespan(1):  C - x(1,1) >= 4
makespan(2):  C - x(2,0) >= 10
cut_clique_0(012,2):  0.05600 x(0,2) + 0.01300 x(1,2) + 0.04800 x(2,2) >= 1
cut_clique_1(012,2):  0.04202 x(0,2) + 0.06723 x(2,2) >= 1
cut_clique_0:  0.02152 x(1,1) + 0.00430 x(2,1) + 0.04636 x(0,2) + 0.03974 x(2,2) >= 1
cut_clique_1:  0.02080 x(2,0) + 0.01188 x(1,1) + 0.00238 x(2,1) + 0.04319 x(0,2) + 0.02514 x(2,2) >= 1
Bounds
 0 <= C <= 45
 0 <= x(0,0) <= 31
 0 <= y(0,1,0) <= 1
 0 <= y(1,0,0) <= 1
 -41 <= v(0,1,0) <= 25
 -29 <= v(1,0,0) <= 37
 -450 <= u(0,1,0)
 -450 <= u(1,0,0)
 0 <= y(0,2,0) <= 1
 0 <= y(2,0,0) <= 1
 -45 <= v(0,2,0) <= 10
 -23 <= v(2,0,0) <= 32
 -450 <= u(0,2,0)
 -450 <= u(2,0,0)
 5 <= x(1,0) <= 40
 0 <= y(1,2,0) <= 1
 0 <= y(2,1,0) <= 1
 -40 <= v(1,2,0) <= 19
 -30 <= v(2,1,0) <= 29
 -450 <= u(1,2,0)
 -450 <= u(2,1,0)
 11 <= x(2,0) <= 35
 13 <= x(0,1) <= 44
 0 <= y(0,1,1) <= 1
 0 <= y(1,0,1) <= 1
 -32 <= v(0,1,1) <= 34
 -39 <= v(1,0,1) <= 27
 -450 <= u(0,1,1)
 -450 <= u(1,0,1)
 0 <= y(0,2,1) <= 1
 0 <= y(2,0,1) <= 1
 -19 <= v(0,2,1) <= 36
 -45 <= v(2,0,1) <= 10
 -450 <= u(0,2,1)
 -450 <= u(2,0,1)
 6 <= x(1,1) <= 41
 0 <= y(1,2,1) <= 1
 0 <= y(2,1,1) <= 1
 -26 <= v(1,2,1) <= 33
 -45 <= v(2,1,1) <= 14
 -450 <= u(1,2,1)
 -450 <= u(2,1,1)
 0 <= x(2,1) <= 24
 3 <= x(0,2) <= 34
 0 <= y(0,1,2) <= 1
 0 <= y(1,0,2) <= 1
 -37 <= v(0,1,2) <= 29
 -44 <= v(1,0,2) <= 22
 -450 <= u(0,1,2)
 -450 <= u(1,0,2)
 0 <= y(0,2,2) <= 1
 0 <= y(2,0,2) <= 1
 -32 <= v(0,2,2) <= 23
 -36 <= v(2,0,2) <= 19
 -450 <= u(0,2,2)
 -450 <= u(2,0,2)
 0 <= x(1,2) <= 35
 0 <= y(1,2,2) <= 1
 0 <= y(2,1,2) <= 1
 -35 <= v(1,2,2) <= 24
 -32 <= v(2,1,2) <= 27
 -450 <= u(1,2,2)
 -450 <= u(2,1,2)
 8 <= x(2,2) <= 32
Integers
C x(0,0) y(0,1,0) y(1,0,0) v(0,1,0) v(1,0,0) u(0,1,0) u(1,0,0) y(0,2,0) y(2,0,0) 
v(0,2,0) v(2,0,0) u(0,2,0) u(2,0,0) x(1,0) y(1,2,0) y(2,1,0) v(1,2,0) v(2,1,0) u(1,2,0) 
u(2,1,0) x(2,0) x(0,1) y(0,1,1) y(1,0,1) v(0,1,1) v(1,0,1) u(0,1,1) u(1,0,1) y(0,2,1) 
y(2,0,1) v(0,2,1) v(2,0,1) u(0,2,1) u(2,0,1) x(1,1) y(1,2,1) y(2,1,1) v(1,2,1) v(2,1,1) 
u(1,2,1) u(2,1,1) x(2,1) x(0,2) y(0,1,2) y(1,0,2) v(0,1,2) v(1,0,2) u(0,1,2) u(1,0,2) 
y(0,2,2) y(2,0,2) v(0,2,2) v(2,0,2) u(0,2,2) u(2,0,2) x(1,2) y(1,2,2) y(2,1,2) v(1,2,2) 
v(2,1,2) u(1,2,2) u(2,1,2) x(2,2) 
End
